c description: Graph pigeonhole principle formula on fast_gnp_random_graph(10,25,0.9)
c generator: CNFgen (0.9.0)
c copyright: (C) 2012-2020 Massimo Lauria <massimo.lauria@uniroma1.it>
c url: https://massimolauria.net/cnfgen
c
p cnf 231 970
1 2 3 4 5 6 7 8 9 10 11 12 13 14 15 16 17 18 19 20 21 22 23 0
24 25 26 27 28 29 30 31 32 33 34 35 36 37 38 39 40 41 42 43 44 45 0
46 47 48 49 50 51 52 53 54 55 56 57 58 59 60 61 62 63 64 65 66 67 68 0
69 70 71 72 73 74 75 76 77 78 79 80 81 82 83 84 85 86 87 88 89 0
90 91 92 93 94 95 96 97 98 99 100 101 102 103 104 105 106 107 108 109 110 111 112 113 114 0
115 116 117 118 119 120 121 122 123 124 125 126 127 128 129 130 131 132 133 134 135 136 137 138 0
139 140 141 142 143 144 145 146 147 148 149 150 151 152 153 154 155 156 157 158 159 160 161 162 0
163 164 165 166 167 168 169 170 171 172 173 174 175 176 177 178 179 180 181 182 183 184 185 186 0
187 188 189 190 191 192 193 194 195 196 197 198 199 200 201 202 203 204 205 206 207 208 0
209 210 211 212 213 214 215 216 217 218 219 220 221 222 223 224 225 226 227 228 229 230 231 0
-1 -46 0
-1 -69 0
-1 -90 0
-1 -115 0
-1 -139 0
-1 -187 0
-1 -209 0
-46 -69 0
-46 -90 0
-46 -115 0
-46 -139 0
-46 -187 0
-46 -209 0
-69 -90 0
-69 -115 0
-69 -139 0
-69 -187 0
-69 -209 0
-90 -115 0
-90 -139 0
-90 -187 0
-90 -209 0
-115 -139 0
-115 -187 0
-115 -209 0
-139 -187 0
-139 -209 0
-187 -209 0
-2 -24 0
-2 -47 0
-2 -70 0
-2 -91 0
-2 -116 0
-2 -140 0
-2 -163 0
-2 -210 0
-24 -47 0
-24 -70 0
-24 -91 0
-24 -116 0
-24 -140 0
-24 -163 0
-24 -210 0
-47 -70 0
-47 -91 0
-47 -116 0
-47 -140 0
-47 -163 0
-47 -210 0
-70 -91 0
-70 -116 0
-70 -140 0
-70 -163 0
-70 -210 0
-91 -116 0
-91 -140 0
-91 -163 0
-91 -210 0
-116 -140 0
-116 -163 0
-116 -210 0
-140 -163 0
-140 -210 0
-163 -210 0
-3 -25 0
-3 -71 0
-3 -92 0
-3 -117 0
-3 -141 0
-3 -164 0
-3 -188 0
-3 -211 0
-25 -71 0
-25 -92 0
-25 -117 0
-25 -141 0
-25 -164 0
-25 -188 0
-25 -211 0
-71 -92 0
-71 -117 0
-71 -141 0
-71 -164 0
-71 -188 0
-71 -211 0
-92 -117 0
-92 -141 0
-92 -164 0
-92 -188 0
-92 -211 0
-117 -141 0
-117 -164 0
-117 -188 0
-117 -211 0
-141 -164 0
-141 -188 0
-141 -211 0
-164 -188 0
-164 -211 0
-188 -211 0
-4 -26 0
-4 -48 0
-4 -72 0
-4 -93 0
-4 -118 0
-4 -142 0
-4 -165 0
-4 -189 0
-4 -212 0
-26 -48 0
-26 -72 0
-26 -93 0
-26 -118 0
-26 -142 0
-26 -165 0
-26 -189 0
-26 -212 0
-48 -72 0
-48 -93 0
-48 -118 0
-48 -142 0
-48 -165 0
-48 -189 0
-48 -212 0
-72 -93 0
-72 -118 0
-72 -142 0
-72 -165 0
-72 -189 0
-72 -212 0
-93 -118 0
-93 -142 0
-93 -165 0
-93 -189 0
-93 -212 0
-118 -142 0
-118 -165 0
-118 -189 0
-118 -212 0
-142 -165 0
-142 -189 0
-142 -212 0
-165 -189 0
-165 -212 0
-189 -212 0
-5 -27 0
-5 -49 0
-5 -73 0
-5 -94 0
-5 -119 0
-5 -143 0
-5 -166 0
-5 -190 0
-5 -213 0
-27 -49 0
-27 -73 0
-27 -94 0
-27 -119 0
-27 -143 0
-27 -166 0
-27 -190 0
-27 -213 0
-49 -73 0
-49 -94 0
-49 -119 0
-49 -143 0
-49 -166 0
-49 -190 0
-49 -213 0
-73 -94 0
-73 -119 0
-73 -143 0
-73 -166 0
-73 -190 0
-73 -213 0
-94 -119 0
-94 -143 0
-94 -166 0
-94 -190 0
-94 -213 0
-119 -143 0
-119 -166 0
-119 -190 0
-119 -213 0
-143 -166 0
-143 -190 0
-143 -213 0
-166 -190 0
-166 -213 0
-190 -213 0
-6 -28 0
-6 -50 0
-6 -95 0
-6 -120 0
-6 -144 0
-6 -167 0
-6 -191 0
-6 -214 0
-28 -50 0
-28 -95 0
-28 -120 0
-28 -144 0
-28 -167 0
-28 -191 0
-28 -214 0
-50 -95 0
-50 -120 0
-50 -144 0
-50 -167 0
-50 -191 0
-50 -214 0
-95 -120 0
-95 -144 0
-95 -167 0
-95 -191 0
-95 -214 0
-120 -144 0
-120 -167 0
-120 -191 0
-120 -214 0
-144 -167 0
-144 -191 0
-144 -214 0
-167 -191 0
-167 -214 0
-191 -214 0
-7 -29 0
-7 -51 0
-7 -74 0
-7 -96 0
-7 -121 0
-7 -145 0
-7 -168 0
-7 -192 0
-7 -215 0
-29 -51 0
-29 -74 0
-29 -96 0
-29 -121 0
-29 -145 0
-29 -168 0
-29 -192 0
-29 -215 0
-51 -74 0
-51 -96 0
-51 -121 0
-51 -145 0
-51 -168 0
-51 -192 0
-51 -215 0
-74 -96 0
-74 -121 0
-74 -145 0
-74 -168 0
-74 -192 0
-74 -215 0
-96 -121 0
-96 -145 0
-96 -168 0
-96 -192 0
-96 -215 0
-121 -145 0
-121 -168 0
-121 -192 0
-121 -215 0
-145 -168 0
-145 -192 0
-145 -215 0
-168 -192 0
-168 -215 0
-192 -215 0
-8 -30 0
-8 -52 0
-8 -75 0
-8 -97 0
-8 -122 0
-8 -146 0
-8 -169 0
-30 -52 0
-30 -75 0
-30 -97 0
-30 -122 0
-30 -146 0
-30 -169 0
-52 -75 0
-52 -97 0
-52 -122 0
-52 -146 0
-52 -169 0
-75 -97 0
-75 -122 0
-75 -146 0
-75 -169 0
-97 -122 0
-97 -146 0
-97 -169 0
-122 -146 0
-122 -169 0
-146 -169 0
-9 -31 0
-9 -53 0
-9 -76 0
-9 -98 0
-9 -123 0
-9 -147 0
-9 -170 0
-9 -193 0
-9 -216 0
-31 -53 0
-31 -76 0
-31 -98 0
-31 -123 0
-31 -147 0
-31 -170 0
-31 -193 0
-31 -216 0
-53 -76 0
-53 -98 0
-53 -123 0
-53 -147 0
-53 -170 0
-53 -193 0
-53 -216 0
-76 -98 0
-76 -123 0
-76 -147 0
-76 -170 0
-76 -193 0
-76 -216 0
-98 -123 0
-98 -147 0
-98 -170 0
-98 -193 0
-98 -216 0
-123 -147 0
-123 -170 0
-123 -193 0
-123 -216 0
-147 -170 0
-147 -193 0
-147 -216 0
-170 -193 0
-170 -216 0
-193 -216 0
-10 -32 0
-10 -54 0
-10 -77 0
-10 -99 0
-10 -124 0
-10 -148 0
-10 -171 0
-10 -194 0
-10 -217 0
-32 -54 0
-32 -77 0
-32 -99 0
-32 -124 0
-32 -148 0
-32 -171 0
-32 -194 0
-32 -217 0
-54 -77 0
-54 -99 0
-54 -124 0
-54 -148 0
-54 -171 0
-54 -194 0
-54 -217 0
-77 -99 0
-77 -124 0
-77 -148 0
-77 -171 0
-77 -194 0
-77 -217 0
-99 -124 0
-99 -148 0
-99 -171 0
-99 -194 0
-99 -217 0
-124 -148 0
-124 -171 0
-124 -194 0
-124 -217 0
-148 -171 0
-148 -194 0
-148 -217 0
-171 -194 0
-171 -217 0
-194 -217 0
-11 -33 0
-11 -55 0
-11 -78 0
-11 -100 0
-11 -125 0
-11 -149 0
-11 -172 0
-11 -195 0
-11 -218 0
-33 -55 0
-33 -78 0
-33 -100 0
-33 -125 0
-33 -149 0
-33 -172 0
-33 -195 0
-33 -218 0
-55 -78 0
-55 -100 0
-55 -125 0
-55 -149 0
-55 -172 0
-55 -195 0
-55 -218 0
-78 -100 0
-78 -125 0
-78 -149 0
-78 -172 0
-78 -195 0
-78 -218 0
-100 -125 0
-100 -149 0
-100 -172 0
-100 -195 0
-100 -218 0
-125 -149 0
-125 -172 0
-125 -195 0
-125 -218 0
-149 -172 0
-149 -195 0
-149 -218 0
-172 -195 0
-172 -218 0
-195 -218 0
-12 -34 0
-12 -79 0
-12 -101 0
-12 -126 0
-12 -150 0
-12 -173 0
-12 -196 0
-12 -219 0
-34 -79 0
-34 -101 0
-34 -126 0
-34 -150 0
-34 -173 0
-34 -196 0
-34 -219 0
-79 -101 0
-79 -126 0
-79 -150 0
-79 -173 0
-79 -196 0
-79 -219 0
-101 -126 0
-101 -150 0
-101 -173 0
-101 -196 0
-101 -219 0
-126 -150 0
-126 -173 0
-126 -196 0
-126 -219 0
-150 -173 0
-150 -196 0
-150 -219 0
-173 -196 0
-173 -219 0
-196 -219 0
-13 -35 0
-13 -56 0
-13 -80 0
-13 -102 0
-13 -127 0
-13 -151 0
-13 -174 0
-13 -197 0
-13 -220 0
-35 -56 0
-35 -80 0
-35 -102 0
-35 -127 0
-35 -151 0
-35 -174 0
-35 -197 0
-35 -220 0
-56 -80 0
-56 -102 0
-56 -127 0
-56 -151 0
-56 -174 0
-56 -197 0
-56 -220 0
-80 -102 0
-80 -127 0
-80 -151 0
-80 -174 0
-80 -197 0
-80 -220 0
-102 -127 0
-102 -151 0
-102 -174 0
-102 -197 0
-102 -220 0
-127 -151 0
-127 -174 0
-127 -197 0
-127 -220 0
-151 -174 0
-151 -197 0
-151 -220 0
-174 -197 0
-174 -220 0
-197 -220 0
-57 -81 0
-57 -103 0
-57 -128 0
-57 -152 0
-57 -175 0
-57 -198 0
-57 -221 0
-81 -103 0
-81 -128 0
-81 -152 0
-81 -175 0
-81 -198 0
-81 -221 0
-103 -128 0
-103 -152 0
-103 -175 0
-103 -198 0
-103 -221 0
-128 -152 0
-128 -175 0
-128 -198 0
-128 -221 0
-152 -175 0
-152 -198 0
-152 -221 0
-175 -198 0
-175 -221 0
-198 -221 0
-14 -36 0
-14 -58 0
-14 -82 0
-14 -104 0
-14 -129 0
-14 -153 0
-14 -176 0
-14 -199 0
-14 -222 0
-36 -58 0
-36 -82 0
-36 -104 0
-36 -129 0
-36 -153 0
-36 -176 0
-36 -199 0
-36 -222 0
-58 -82 0
-58 -104 0
-58 -129 0
-58 -153 0
-58 -176 0
-58 -199 0
-58 -222 0
-82 -104 0
-82 -129 0
-82 -153 0
-82 -176 0
-82 -199 0
-82 -222 0
-104 -129 0
-104 -153 0
-104 -176 0
-104 -199 0
-104 -222 0
-129 -153 0
-129 -176 0
-129 -199 0
-129 -222 0
-153 -176 0
-153 -199 0
-153 -222 0
-176 -199 0
-176 -222 0
-199 -222 0
-15 -37 0
-15 -59 0
-15 -105 0
-15 -130 0
-15 -177 0
-15 -200 0
-15 -223 0
-37 -59 0
-37 -105 0
-37 -130 0
-37 -177 0
-37 -200 0
-37 -223 0
-59 -105 0
-59 -130 0
-59 -177 0
-59 -200 0
-59 -223 0
-105 -130 0
-105 -177 0
-105 -200 0
-105 -223 0
-130 -177 0
-130 -200 0
-130 -223 0
-177 -200 0
-177 -223 0
-200 -223 0
-16 -38 0
-16 -60 0
-16 -106 0
-16 -131 0
-16 -154 0
-16 -178 0
-16 -201 0
-16 -224 0
-38 -60 0
-38 -106 0
-38 -131 0
-38 -154 0
-38 -178 0
-38 -201 0
-38 -224 0
-60 -106 0
-60 -131 0
-60 -154 0
-60 -178 0
-60 -201 0
-60 -224 0
-106 -131 0
-106 -154 0
-106 -178 0
-106 -201 0
-106 -224 0
-131 -154 0
-131 -178 0
-131 -201 0
-131 -224 0
-154 -178 0
-154 -201 0
-154 -224 0
-178 -201 0
-178 -224 0
-201 -224 0
-17 -39 0
-17 -61 0
-17 -83 0
-17 -107 0
-17 -132 0
-17 -155 0
-17 -179 0
-17 -202 0
-17 -225 0
-39 -61 0
-39 -83 0
-39 -107 0
-39 -132 0
-39 -155 0
-39 -179 0
-39 -202 0
-39 -225 0
-61 -83 0
-61 -107 0
-61 -132 0
-61 -155 0
-61 -179 0
-61 -202 0
-61 -225 0
-83 -107 0
-83 -132 0
-83 -155 0
-83 -179 0
-83 -202 0
-83 -225 0
-107 -132 0
-107 -155 0
-107 -179 0
-107 -202 0
-107 -225 0
-132 -155 0
-132 -179 0
-132 -202 0
-132 -225 0
-155 -179 0
-155 -202 0
-155 -225 0
-179 -202 0
-179 -225 0
-202 -225 0
-18 -40 0
-18 -62 0
-18 -84 0
-18 -108 0
-18 -133 0
-18 -156 0
-18 -180 0
-18 -203 0
-40 -62 0
-40 -84 0
-40 -108 0
-40 -133 0
-40 -156 0
-40 -180 0
-40 -203 0
-62 -84 0
-62 -108 0
-62 -133 0
-62 -156 0
-62 -180 0
-62 -203 0
-84 -108 0
-84 -133 0
-84 -156 0
-84 -180 0
-84 -203 0
-108 -133 0
-108 -156 0
-108 -180 0
-108 -203 0
-133 -156 0
-133 -180 0
-133 -203 0
-156 -180 0
-156 -203 0
-180 -203 0
-19 -41 0
-19 -63 0
-19 -85 0
-19 -109 0
-19 -134 0
-19 -157 0
-19 -181 0
-19 -204 0
-19 -226 0
-41 -63 0
-41 -85 0
-41 -109 0
-41 -134 0
-41 -157 0
-41 -181 0
-41 -204 0
-41 -226 0
-63 -85 0
-63 -109 0
-63 -134 0
-63 -157 0
-63 -181 0
-63 -204 0
-63 -226 0
-85 -109 0
-85 -134 0
-85 -157 0
-85 -181 0
-85 -204 0
-85 -226 0
-109 -134 0
-109 -157 0
-109 -181 0
-109 -204 0
-109 -226 0
-134 -157 0
-134 -181 0
-134 -204 0
-134 -226 0
-157 -181 0
-157 -204 0
-157 -226 0
-181 -204 0
-181 -226 0
-204 -226 0
-42 -64 0
-42 -86 0
-42 -110 0
-42 -158 0
-42 -182 0
-42 -205 0
-42 -227 0
-64 -86 0
-64 -110 0
-64 -158 0
-64 -182 0
-64 -205 0
-64 -227 0
-86 -110 0
-86 -158 0
-86 -182 0
-86 -205 0
-86 -227 0
-110 -158 0
-110 -182 0
-110 -205 0
-110 -227 0
-158 -182 0
-158 -205 0
-158 -227 0
-182 -205 0
-182 -227 0
-205 -227 0
-20 -43 0
-20 -65 0
-20 -111 0
-20 -135 0
-20 -159 0
-20 -183 0
-20 -228 0
-43 -65 0
-43 -111 0
-43 -135 0
-43 -159 0
-43 -183 0
-43 -228 0
-65 -111 0
-65 -135 0
-65 -159 0
-65 -183 0
-65 -228 0
-111 -135 0
-111 -159 0
-111 -183 0
-111 -228 0
-135 -159 0
-135 -183 0
-135 -228 0
-159 -183 0
-159 -228 0
-183 -228 0
-21 -44 0
-21 -66 0
-21 -87 0
-21 -112 0
-21 -136 0
-21 -160 0
-21 -184 0
-21 -206 0
-21 -229 0
-44 -66 0
-44 -87 0
-44 -112 0
-44 -136 0
-44 -160 0
-44 -184 0
-44 -206 0
-44 -229 0
-66 -87 0
-66 -112 0
-66 -136 0
-66 -160 0
-66 -184 0
-66 -206 0
-66 -229 0
-87 -112 0
-87 -136 0
-87 -160 0
-87 -184 0
-87 -206 0
-87 -229 0
-112 -136 0
-112 -160 0
-112 -184 0
-112 -206 0
-112 -229 0
-136 -160 0
-136 -184 0
-136 -206 0
-136 -229 0
-160 -184 0
-160 -206 0
-160 -229 0
-184 -206 0
-184 -229 0
-206 -229 0
-22 -45 0
-22 -67 0
-22 -88 0
-22 -113 0
-22 -137 0
-22 -161 0
-22 -185 0
-22 -207 0
-22 -230 0
-45 -67 0
-45 -88 0
-45 -113 0
-45 -137 0
-45 -161 0
-45 -185 0
-45 -207 0
-45 -230 0
-67 -88 0
-67 -113 0
-67 -137 0
-67 -161 0
-67 -185 0
-67 -207 0
-67 -230 0
-88 -113 0
-88 -137 0
-88 -161 0
-88 -185 0
-88 -207 0
-88 -230 0
-113 -137 0
-113 -161 0
-113 -185 0
-113 -207 0
-113 -230 0
-137 -161 0
-137 -185 0
-137 -207 0
-137 -230 0
-161 -185 0
-161 -207 0
-161 -230 0
-185 -207 0
-185 -230 0
-207 -230 0
-23 -68 0
-23 -89 0
-23 -114 0
-23 -138 0
-23 -162 0
-23 -186 0
-23 -208 0
-23 -231 0
-68 -89 0
-68 -114 0
-68 -138 0
-68 -162 0
-68 -186 0
-68 -208 0
-68 -231 0
-89 -114 0
-89 -138 0
-89 -162 0
-89 -186 0
-89 -208 0
-89 -231 0
-114 -138 0
-114 -162 0
-114 -186 0
-114 -208 0
-114 -231 0
-138 -162 0
-138 -186 0
-138 -208 0
-138 -231 0
-162 -186 0
-162 -208 0
-162 -231 0
-186 -208 0
-186 -231 0
-208 -231 0